p tw 117 21061 2 
1 3 
1 4 
1 5 
1 6 
1 7 
1 8 
1 9 
1 10 
1 11 
1 12 
1 13 
1 14 
1 15 
1 16 
1 17 
1 18 
1 19 
1 20 
1 21 
1 22 
1 23 
1 24 
1 25 
1 26 
1 27 
1 28 
1 29 
1 30 
1 31 
1 32 
1 33 
1 34 
1 35 
1 36 
1 37 
2 3 
2 4 
2 5 
2 6 
2 7 
2 8 
2 9 
2 10 
2 11 
2 12 
2 13 
2 14 
2 24 
2 26 
2 35 
2 38 
2 39 
2 40 
2 41 
2 42 
2 43 
2 44 
2 45 
2 46 
2 47 
2 51 
2 64 
2 71 
2 78 
2 85 
2 91 
2 94 
2 102 
2 108 
2 110 
3 4 
3 5 
3 6 
3 7 
3 8 
3 9 
3 10 
3 11 
3 12 
3 13 
3 15 
3 17 
3 27 
3 29 
3 38 
3 39 
3 48 
3 49 
3 50 
3 51 
3 52 
3 53 
3 54 
3 55 
3 56 
3 57 
3 66 
3 67 
3 68 
3 69 
3 70 
3 71 
3 72 
3 73 
4 5 
4 6 
4 7 
4 8 
4 9 
4 10 
4 11 
4 12 
4 13 
4 16 
4 25 
4 28 
4 34 
4 38 
4 42 
4 56 
4 57 
4 58 
4 59 
4 60 
4 61 
4 62 
4 63 
4 64 
4 65 
4 72 
4 78 
4 84 
4 92 
4 93 
4 107 
4 115 
4 117 
5 6 
5 7 
5 8 
5 9 
5 10 
5 11 
5 12 
5 13 
5 16 
5 22 
5 30 
5 34 
5 40 
5 43 
5 48 
5 52 
5 61 
5 66 
5 68 
5 74 
5 75 
5 76 
5 77 
5 78 
5 79 
5 80 
5 83 
5 89 
5 97 
5 101 
5 102 
5 103 
6 7 
6 8 
6 9 
6 10 
6 11 
6 12 
6 13 
6 18 
6 24 
6 26 
6 37 
6 45 
6 49 
6 53 
6 58 
6 61 
6 66 
6 73 
6 74 
6 81 
6 82 
6 83 
6 84 
6 85 
6 86 
6 87 
6 92 
6 99 
6 111 
6 114 
6 116 
7 8 
7 9 
7 10 
7 11 
7 12 
7 13 
7 19 
7 21 
7 31 
7 32 
7 39 
7 40 
7 50 
7 56 
7 59 
7 64 
7 67 
7 76 
7 81 
7 87 
7 88 
7 89 
7 90 
7 91 
7 92 
7 103 
7 104 
7 109 
7 112 
7 114 
8 9 
8 10 
8 11 
8 12 
8 13 
8 19 
8 20 
8 32 
8 33 
8 41 
8 47 
8 49 
8 55 
8 58 
8 60 
8 68 
8 69 
8 74 
8 80 
8 88 
8 93 
8 94 
8 95 
8 96 
8 102 
8 107 
8 111 
8 112 
8 113 
9 10 
9 11 
9 12 
9 13 
9 20 
9 21 
9 31 
9 33 
9 42 
9 46 
9 48 
9 51 
9 57 
9 65 
9 73 
9 75 
9 82 
9 83 
9 88 
9 97 
9 98 
9 99 
9 100 
9 105 
9 106 
9 110 
9 112 
9 115 
10 11 
10 12 
10 13 
10 14 
10 18 
10 35 
10 37 
10 44 
10 50 
10 53 
10 62 
10 65 
10 69 
10 71 
10 75 
10 77 
10 86 
10 90 
10 93 
10 96 
10 98 
10 101 
10 103 
10 104 
10 105 
10 113 
10 117 
11 12 
11 13 
11 15 
11 23 
11 29 
11 36 
11 45 
11 46 
11 54 
11 59 
11 63 
11 72 
11 76 
11 79 
11 81 
11 86 
11 94 
11 95 
11 97 
11 98 
11 101 
11 104 
11 106 
11 107 
11 108 
11 111 
12 13 
12 22 
12 25 
12 28 
12 30 
12 41 
12 43 
12 54 
12 55 
12 62 
12 67 
12 70 
12 77 
12 84 
12 87 
12 90 
12 95 
12 99 
12 100 
12 106 
12 108 
12 109 
12 110 
12 113 
12 116 
13 17 
13 23 
13 27 
13 36 
13 44 
13 47 
13 52 
13 60 
13 63 
13 70 
13 79 
13 80 
13 82 
13 85 
13 89 
13 91 
13 96 
13 100 
13 105 
13 109 
13 114 
13 115 
13 116 
13 117 
14 15 
14 16 
14 17 
14 18 
14 19 
14 20 
14 21 
14 22 
14 23 
14 24 
14 25 
14 26 
14 37 
14 38 
14 39 
14 40 
14 41 
14 42 
14 43 
14 44 
14 45 
14 46 
14 47 
14 50 
14 65 
14 71 
14 77 
14 86 
14 96 
14 98 
14 103 
14 113 
14 117 
15 16 
15 17 
15 18 
15 19 
15 20 
15 21 
15 22 
15 23 
15 24 
15 25 
15 27 
15 36 
15 38 
15 46 
15 48 
15 49 
15 50 
15 51 
15 52 
15 53 
15 54 
15 55 
15 56 
15 59 
15 72 
15 79 
15 86 
15 95 
15 97 
15 104 
15 108 
15 111 
16 17 
16 18 
16 19 
16 20 
16 21 
16 22 
16 23 
16 24 
16 25 
16 28 
16 30 
16 38 
16 40 
16 48 
16 57 
16 58 
16 59 
16 60 
16 61 
16 62 
16 63 
16 64 
16 65 
16 66 
16 74 
16 75 
16 76 
16 77 
16 78 
16 79 
16 80 
17 18 
17 19 
17 20 
17 21 
17 22 
17 23 
17 24 
17 25 
17 29 
17 36 
17 39 
17 44 
17 52 
17 57 
17 63 
17 66 
17 67 
17 68 
17 69 
17 70 
17 71 
17 72 
17 73 
17 80 
17 82 
17 91 
17 96 
17 109 
17 115 
17 116 
18 19 
18 20 
18 21 
18 22 
18 23 
18 24 
18 25 
18 26 
18 35 
18 44 
18 49 
18 53 
18 58 
18 62 
18 66 
18 69 
18 75 
18 81 
18 82 
18 83 
18 84 
18 85 
18 86 
18 87 
18 90 
18 93 
18 101 
18 104 
18 105 
19 20 
19 21 
19 22 
19 23 
19 24 
19 25 
19 31 
19 33 
19 40 
19 47 
19 50 
19 55 
19 58 
19 59 
19 67 
19 69 
19 80 
19 81 
19 88 
19 89 
19 90 
19 91 
19 92 
19 102 
19 107 
19 111 
19 112 
19 113 
20 21 
20 22 
20 23 
20 24 
20 25 
20 31 
20 32 
20 41 
20 46 
20 48 
20 49 
20 60 
20 65 
20 68 
20 73 
20 74 
20 83 
20 88 
20 93 
20 94 
20 95 
20 96 
20 105 
20 106 
20 110 
20 112 
20 115 
21 22 
21 23 
21 24 
21 25 
21 32 
21 33 
21 39 
21 42 
21 51 
21 56 
21 57 
21 64 
21 75 
21 76 
21 82 
21 87 
21 88 
21 97 
21 98 
21 99 
21 100 
21 103 
21 104 
21 109 
21 112 
21 114 
22 23 
22 24 
22 25 
22 28 
22 34 
22 41 
22 43 
22 52 
22 55 
22 61 
22 68 
22 70 
22 77 
22 83 
22 84 
22 89 
22 90 
22 97 
22 99 
22 101 
22 102 
22 103 
22 106 
22 108 
22 109 
23 24 
23 25 
23 27 
23 29 
23 45 
23 47 
23 54 
23 60 
23 63 
23 70 
23 76 
23 79 
23 81 
23 85 
23 89 
23 94 
23 98 
23 100 
23 101 
23 105 
23 106 
23 107 
23 114 
23 117 
24 25 
24 35 
24 37 
24 45 
24 51 
24 53 
24 61 
24 64 
24 71 
24 73 
24 74 
24 78 
24 85 
24 91 
24 92 
24 94 
24 99 
24 102 
24 108 
24 110 
24 111 
24 114 
24 116 
25 30 
25 34 
25 42 
25 43 
25 54 
25 56 
25 62 
25 67 
25 72 
25 78 
25 84 
25 87 
25 92 
25 93 
25 95 
25 100 
25 107 
25 110 
25 113 
25 115 
25 116 
25 117 
26 27 
26 28 
26 29 
26 30 
26 31 
26 32 
26 33 
26 34 
26 35 
26 36 
26 37 
26 38 
26 39 
26 40 
26 41 
26 42 
26 43 
26 44 
26 45 
26 46 
26 47 
26 49 
26 58 
26 66 
26 81 
26 82 
26 83 
26 84 
26 85 
26 86 
26 87 
27 28 
27 29 
27 30 
27 31 
27 32 
27 33 
27 34 
27 35 
27 36 
27 37 
27 38 
27 47 
27 48 
27 49 
27 50 
27 51 
27 52 
27 53 
27 54 
27 55 
27 56 
27 60 
27 70 
27 79 
27 85 
27 89 
27 100 
27 105 
27 114 
27 117 
28 29 
28 30 
28 31 
28 32 
28 33 
28 34 
28 35 
28 36 
28 37 
28 38 
28 41 
28 55 
28 57 
28 58 
28 59 
28 60 
28 61 
28 62 
28 63 
28 64 
28 65 
28 70 
28 77 
28 84 
28 90 
28 99 
28 106 
28 108 
28 109 
29 30 
29 31 
29 32 
29 33 
29 34 
29 35 
29 36 
29 37 
29 39 
29 45 
29 54 
29 57 
29 63 
29 66 
29 67 
29 68 
29 69 
29 70 
29 71 
29 72 
29 73 
29 76 
29 81 
29 94 
29 98 
29 101 
29 106 
29 107 
30 31 
30 32 
30 33 
30 34 
30 35 
30 36 
30 37 
30 40 
30 43 
30 48 
30 54 
30 62 
30 66 
30 67 
30 74 
30 75 
30 76 
30 77 
30 78 
30 79 
30 80 
30 87 
30 95 
30 100 
30 110 
30 113 
30 116 
31 32 
31 33 
31 34 
31 35 
31 36 
31 37 
31 40 
31 46 
31 48 
31 50 
31 59 
31 65 
31 67 
31 73 
31 81 
31 83 
31 88 
31 89 
31 90 
31 91 
31 92 
31 105 
31 106 
31 110 
31 112 
31 115 
32 33 
32 34 
32 35 
32 36 
32 37 
32 39 
32 41 
32 49 
32 56 
32 60 
32 64 
32 68 
32 74 
32 76 
32 87 
32 88 
32 93 
32 94 
32 95 
32 96 
32 103 
32 104 
32 109 
32 112 
32 114 
33 34 
33 35 
33 36 
33 37 
33 42 
33 47 
33 51 
33 55 
33 57 
33 58 
33 69 
33 75 
33 80 
33 82 
33 88 
33 97 
33 98 
33 99 
33 100 
33 102 
33 107 
33 111 
33 112 
33 113 
34 35 
34 36 
34 37 
34 42 
34 43 
34 52 
34 56 
34 61 
34 68 
34 72 
34 78 
34 83 
34 84 
34 89 
34 92 
34 93 
34 97 
34 101 
34 102 
34 103 
34 107 
34 115 
34 117 
35 36 
35 37 
35 44 
35 51 
35 53 
35 62 
35 64 
35 69 
35 71 
35 75 
35 78 
35 85 
35 90 
35 91 
35 93 
35 94 
35 101 
35 102 
35 104 
35 105 
35 108 
35 110 
36 37 
36 44 
36 46 
36 52 
36 59 
36 63 
36 72 
36 79 
36 80 
36 82 
36 86 
36 91 
36 95 
36 96 
36 97 
36 104 
36 108 
36 109 
36 111 
36 115 
36 116 
37 45 
37 50 
37 53 
37 61 
37 65 
37 71 
37 73 
37 74 
37 77 
37 86 
37 92 
37 96 
37 98 
37 99 
37 103 
37 111 
37 113 
37 114 
37 116 
37 117 
38 39 
38 40 
38 41 
38 42 
38 43 
38 44 
38 45 
38 46 
38 47 
38 48 
38 49 
38 50 
38 51 
38 52 
38 53 
38 54 
38 55 
38 56 
38 57 
38 58 
38 59 
38 60 
38 61 
38 62 
38 63 
38 64 
38 65 
39 40 
39 41 
39 42 
39 43 
39 44 
39 45 
39 46 
39 47 
39 56 
39 57 
39 64 
39 66 
39 67 
39 68 
39 69 
39 70 
39 71 
39 72 
39 73 
39 76 
39 87 
39 103 
39 104 
39 109 
39 112 
39 114 
40 41 
40 42 
40 43 
40 44 
40 45 
40 46 
40 47 
40 48 
40 50 
40 59 
40 66 
40 67 
40 74 
40 75 
40 76 
40 77 
40 78 
40 79 
40 80 
40 81 
40 88 
40 89 
40 90 
40 91 
40 92 
41 42 
41 43 
41 44 
41 45 
41 46 
41 47 
41 49 
41 55 
41 60 
41 68 
41 70 
41 74 
41 77 
41 84 
41 88 
41 90 
41 93 
41 94 
41 95 
41 96 
41 99 
41 106 
41 108 
41 109 
42 43 
42 44 
42 45 
42 46 
42 47 
42 51 
42 56 
42 57 
42 72 
42 75 
42 78 
42 82 
42 84 
42 88 
42 92 
42 93 
42 97 
42 98 
42 99 
42 100 
42 107 
42 115 
42 117 
43 44 
43 45 
43 46 
43 47 
43 52 
43 54 
43 61 
43 62 
43 67 
43 68 
43 83 
43 87 
43 89 
43 95 
43 97 
43 100 
43 101 
43 102 
43 103 
43 110 
43 113 
43 116 
44 45 
44 46 
44 47 
44 52 
44 53 
44 62 
44 63 
44 69 
44 75 
44 80 
44 82 
44 90 
44 91 
44 93 
44 96 
44 101 
44 104 
44 105 
44 109 
44 115 
44 116 
45 46 
45 47 
45 53 
45 54 
45 61 
45 63 
45 73 
45 74 
45 76 
45 81 
45 92 
45 94 
45 98 
45 99 
45 101 
45 106 
45 107 
45 111 
45 114 
45 116 
46 47 
46 48 
46 59 
46 65 
46 72 
46 73 
46 79 
46 83 
46 86 
46 95 
46 97 
46 104 
46 105 
46 106 
46 108 
46 110 
46 111 
46 112 
46 115 
47 55 
47 58 
47 60 
47 69 
47 70 
47 79 
47 80 
47 85 
47 89 
47 100 
47 102 
47 105 
47 107 
47 111 
47 112 
47 113 
47 114 
47 117 
48 49 
48 50 
48 51 
48 52 
48 53 
48 54 
48 55 
48 56 
48 65 
48 66 
48 73 
48 74 
48 75 
48 76 
48 77 
48 78 
48 79 
48 80 
48 83 
48 105 
48 106 
48 110 
48 112 
48 115 
49 50 
49 51 
49 52 
49 53 
49 54 
49 55 
49 56 
49 58 
49 60 
49 66 
49 68 
49 74 
49 81 
49 82 
49 83 
49 84 
49 85 
49 86 
49 87 
49 88 
49 93 
49 94 
49 95 
49 96 
50 51 
50 52 
50 53 
50 54 
50 55 
50 56 
50 59 
50 65 
50 67 
50 71 
50 77 
50 81 
50 86 
50 88 
50 89 
50 90 
50 91 
50 92 
50 96 
50 98 
50 103 
50 113 
50 117 
51 52 
51 53 
51 54 
51 55 
51 56 
51 57 
51 64 
51 71 
51 75 
51 78 
51 82 
51 85 
51 88 
51 91 
51 94 
51 97 
51 98 
51 99 
51 100 
51 102 
51 108 
51 110 
52 53 
52 54 
52 55 
52 56 
52 61 
52 63 
52 68 
52 80 
52 82 
52 83 
52 89 
52 91 
52 96 
52 97 
52 101 
52 102 
52 103 
52 109 
52 115 
52 116 
53 54 
53 55 
53 56 
53 61 
53 62 
53 69 
53 73 
53 74 
53 75 
53 90 
53 92 
53 93 
53 99 
53 101 
53 104 
53 105 
53 111 
53 114 
53 116 
54 55 
54 56 
54 62 
54 63 
54 67 
54 76 
54 81 
54 87 
54 94 
54 95 
54 98 
54 100 
54 101 
54 106 
54 107 
54 110 
54 113 
54 116 
55 56 
55 58 
55 69 
55 70 
55 77 
55 80 
55 84 
55 90 
55 99 
55 102 
55 106 
55 107 
55 108 
55 109 
55 111 
55 112 
55 113 
56 64 
56 72 
56 76 
56 78 
56 84 
56 87 
56 92 
56 93 
56 103 
56 104 
56 107 
56 109 
56 112 
56 114 
56 115 
56 117 
57 58 
57 59 
57 60 
57 61 
57 62 
57 63 
57 64 
57 65 
57 66 
57 67 
57 68 
57 69 
57 70 
57 71 
57 72 
57 73 
57 75 
57 82 
57 88 
57 97 
57 98 
57 99 
57 100 
58 59 
58 60 
58 61 
58 62 
58 63 
58 64 
58 65 
58 66 
58 69 
58 80 
58 81 
58 82 
58 83 
58 84 
58 85 
58 86 
58 87 
58 102 
58 107 
58 111 
58 112 
58 113 
59 60 
59 61 
59 62 
59 63 
59 64 
59 65 
59 67 
59 72 
59 79 
59 81 
59 86 
59 88 
59 89 
59 90 
59 91 
59 92 
59 95 
59 97 
59 104 
59 108 
59 111 
60 61 
60 62 
60 63 
60 64 
60 65 
60 68 
60 70 
60 74 
60 79 
60 85 
60 88 
60 89 
60 93 
60 94 
60 95 
60 96 
60 100 
60 105 
60 114 
60 117 
61 62 
61 63 
61 64 
61 65 
61 68 
61 73 
61 74 
61 83 
61 89 
61 92 
61 97 
61 99 
61 101 
61 102 
61 103 
61 111 
61 114 
61 116 
62 63 
62 64 
62 65 
62 67 
62 69 
62 75 
62 87 
62 90 
62 93 
62 95 
62 100 
62 101 
62 104 
62 105 
62 110 
62 113 
62 116 
63 64 
63 65 
63 76 
63 80 
63 81 
63 82 
63 91 
63 94 
63 96 
63 98 
63 101 
63 106 
63 107 
63 109 
63 115 
63 116 
64 65 
64 71 
64 76 
64 78 
64 85 
64 87 
64 91 
64 94 
64 102 
64 103 
64 104 
64 108 
64 109 
64 110 
64 112 
64 114 
65 71 
65 73 
65 77 
65 83 
65 86 
65 96 
65 98 
65 103 
65 105 
65 106 
65 110 
65 112 
65 113 
65 115 
65 117 
66 67 
66 68 
66 69 
66 70 
66 71 
66 72 
66 73 
66 74 
66 75 
66 76 
66 77 
66 78 
66 79 
66 80 
66 81 
66 82 
66 83 
66 84 
66 85 
66 86 
66 87 
67 68 
67 69 
67 70 
67 71 
67 72 
67 73 
67 81 
67 87 
67 88 
67 89 
67 90 
67 91 
67 92 
67 95 
67 100 
67 110 
67 113 
67 116 
68 69 
68 70 
68 71 
68 72 
68 73 
68 74 
68 83 
68 88 
68 89 
68 93 
68 94 
68 95 
68 96 
68 97 
68 101 
68 102 
68 103 
69 70 
69 71 
69 72 
69 73 
69 75 
69 80 
69 90 
69 93 
69 101 
69 102 
69 104 
69 105 
69 107 
69 111 
69 112 
69 113 
70 71 
70 72 
70 73 
70 77 
70 79 
70 84 
70 85 
70 89 
70 90 
70 99 
70 100 
70 105 
70 106 
70 108 
70 109 
70 114 
70 117 
71 72 
71 73 
71 77 
71 78 
71 85 
71 86 
71 91 
71 94 
71 96 
71 98 
71 102 
71 103 
71 108 
71 110 
71 113 
71 117 
72 73 
72 78 
72 79 
72 84 
72 86 
72 92 
72 93 
72 95 
72 97 
72 104 
72 107 
72 108 
72 111 
72 115 
72 117 
73 74 
73 83 
73 92 
73 99 
73 105 
73 106 
73 110 
73 111 
73 112 
73 114 
73 115 
73 116 
74 75 
74 76 
74 77 
74 78 
74 79 
74 80 
74 88 
74 92 
74 93 
74 94 
74 95 
74 96 
74 99 
74 111 
74 114 
74 116 
75 76 
75 77 
75 78 
75 79 
75 80 
75 82 
75 88 
75 90 
75 93 
75 97 
75 98 
75 99 
75 100 
75 101 
75 104 
75 105 
76 77 
76 78 
76 79 
76 80 
76 81 
76 87 
76 94 
76 98 
76 101 
76 103 
76 104 
76 106 
76 107 
76 109 
76 112 
76 114 
77 78 
77 79 
77 80 
77 84 
77 86 
77 90 
77 96 
77 98 
77 99 
77 103 
77 106 
77 108 
77 109 
77 113 
77 117 
78 79 
78 80 
78 84 
78 85 
78 91 
78 92 
78 93 
78 94 
78 102 
78 107 
78 108 
78 110 
78 115 
78 117 
79 80 
79 85 
79 86 
79 89 
79 95 
79 97 
79 100 
79 104 
79 105 
79 108 
79 111 
79 114 
79 117 
80 82 
80 91 
80 96 
80 102 
80 107 
80 109 
80 111 
80 112 
80 113 
80 115 
80 116 
81 82 
81 83 
81 84 
81 85 
81 86 
81 87 
81 88 
81 89 
81 90 
81 91 
81 92 
81 94 
81 98 
81 101 
81 106 
81 107 
82 83 
82 84 
82 85 
82 86 
82 87 
82 88 
82 91 
82 96 
82 97 
82 98 
82 99 
82 100 
82 109 
82 115 
82 116 
83 84 
83 85 
83 86 
83 87 
83 89 
83 97 
83 101 
83 102 
83 103 
83 105 
83 106 
83 110 
83 112 
83 115 
84 85 
84 86 
84 87 
84 90 
84 92 
84 93 
84 99 
84 106 
84 107 
84 108 
84 109 
84 115 
84 117 
85 86 
85 87 
85 89 
85 91 
85 94 
85 100 
85 102 
85 105 
85 108 
85 110 
85 114 
85 117 
86 87 
86 95 
86 96 
86 97 
86 98 
86 103 
86 104 
86 108 
86 111 
86 113 
86 117 
87 95 
87 100 
87 103 
87 104 
87 109 
87 110 
87 112 
87 113 
87 114 
87 116 
88 89 
88 90 
88 91 
88 92 
88 93 
88 94 
88 95 
88 96 
88 97 
88 98 
88 99 
88 100 
89 90 
89 91 
89 92 
89 97 
89 100 
89 101 
89 102 
89 103 
89 105 
89 114 
89 117 
90 91 
90 92 
90 93 
90 99 
90 101 
90 104 
90 105 
90 106 
90 108 
90 109 
91 92 
91 94 
91 96 
91 102 
91 108 
91 109 
91 110 
91 115 
91 116 
92 93 
92 99 
92 107 
92 111 
92 114 
92 115 
92 116 
92 117 
93 94 
93 95 
93 96 
93 101 
93 104 
93 105 
93 107 
93 115 
93 117 
94 95 
94 96 
94 98 
94 101 
94 102 
94 106 
94 107 
94 108 
94 110 
95 96 
95 97 
95 100 
95 104 
95 108 
95 110 
95 111 
95 113 
95 116 
96 98 
96 103 
96 109 
96 113 
96 115 
96 116 
96 117 
97 98 
97 99 
97 100 
97 101 
97 102 
97 103 
97 104 
97 108 
97 111 
98 99 
98 100 
98 101 
98 103 
98 106 
98 107 
98 113 
98 117 
99 100 
99 106 
99 108 
99 109 
99 111 
99 114 
99 116 
100 105 
100 110 
100 113 
100 114 
100 116 
100 117 
101 102 
101 103 
101 104 
101 105 
101 106 
101 107 
102 103 
102 107 
102 108 
102 110 
102 111 
102 112 
102 113 
103 104 
103 109 
103 112 
103 113 
103 114 
103 117 
104 105 
104 108 
104 109 
104 111 
104 112 
104 114 
105 106 
105 110 
105 112 
105 114 
105 115 
105 117 
106 107 
106 108 
106 109 
106 110 
106 112 
106 115 
107 111 
107 112 
107 113 
107 115 
107 117 
108 109 
108 110 
108 111 
109 112 
109 114 
109 115 
109 116 
110 112 
110 113 
110 115 
110 116 
111 112 
111 113 
111 114 
111 116 
112 113 
112 114 
112 115 
113 116 
113 117 
114 116 
114 117 
115 116 
115 117 
